Optimal - objective value 4.00000000
      6 x_0_6                      1                       1
     16 x_1_3                      1                       0
     32 x_2_6                      1                       0
     45 x_3_6                      1                       0
     52 x_4_0                      1                       0
     71 x_5_6                      1                       0
     81 x_6_3                      1                       0
    101 x_7_10                     1                       0
    114 x_8_10                     1                       0
    127 x_9_10                     1                       0
    133 x_10_3                     1                       0
    153 x_11_10                    1                       0
    159 x_12_3                     1         -2.22044604925031e-16
    169 y_0                        1                       0
    172 y_3                        1                       0
    175 y_6                        1         -1.75541673428835e-16
    179 y_10                       1                       1
